StudentsNr = 10;
InstructorsNr = 24;
DaysNr = 1;
SlotsPerDay = 20;
AvailabilitySlotsLenght = 20;
RoomNr = 2;
ProgrammNr = 2;
DegreeNr = 2;
RolesNr = 1;
CoursesNr = 6;
InstructorsProgramm = [{2}, {1, 2}, {1}, {1}, {1}, {1}, {2}, {1, 2}, {1, 2}, {2}, {1, 2}, {1}, {1, 2}, {2}, {2}, {2}, {1}, {2}, {2}, {2}, {1}, {1, 2}, {1}, {2}];
InstructorRolesPerProgramm = [|{4, 5, 8, 9, 11, 13, 17, 21, 22, 23}|{8, 9, 11, 13, 15, 16, 18, 19, 20, 22, 24}|];
InstructorsAvailability = [|1, |0, |1, |1, |0, |0, |0, |1, |0, |1, |0, |0, |1, |1, |0, |0, |0, |0, |0, |1, |0, |0, |0, |1|];
StudentsProgramm = [1, 2, 2, 1, 2, 2, 2, 2, 1, 1];
StudentsDegree = [2, 2, 2, 2, 1, 2, 1, 2, 1, 1];
StudentsSupervisorId = [21, 8, 24, 8, 10, 22, 18, 10, 2, 12];
StudentsCourseIds = [{1, 2, 3, 4, 5, 6}, {1, 2, 3, 4, 5, 6}, {1, 2, 3, 4, 5, 6}, {1, 2, 3, 4, 5, 6}, {1, 2, 3, 5}, {1, 2, 3, 4, 5, 6}, {2, 4, 5, 6}, {1, 2, 3, 4, 5, 6}, {2, 3, 4, 5}, {2, 3, 5, 6}];
StudentsAvailability = [|1, |0, |1, |1, |1, |0, |1, |1, |1, |0|];
TheoryticalMinCard = [0, 0, 0, 0, 0, 0, 0, 0, 0, 0];
CoursesInstructorIds = [{2, 3, 8, 10, 12, 13, 15, 16, 17, 18, 19, 21, 22, 23}, {1, 2, 6, 9, 11, 12, 13, 15, 16, 18, 19, 22, 24}, {2, 5, 6, 7, 8, 11, 15, 17, 18, 19, 20, 21, 24}, {6, 13, 14, 17, 19, 20, 21, 23, 24}, {5, 7, 9, 10, 13, 16, 18, 19, 23}, {2, 4, 5, 6, 10, 11, 12, 13, 14, 18, 20, 22, 23}];
RolesDemands = [7];
RolesContinuity = [];
ExamLen = [1, 1, 1, 1, 1, 1, 1, 1, 1, 1];
LunchTsMinLen = 0;
LunchStarts = [8..14];
SupervisorAvailable = 5;
OptimalLunchLenght = [3, 0];
OptimalStartTs = [1, 0];
OptimalFinishTs = [2, 20];
MinimizeRooms = 500;
RolesSoftContinuity = [|1|1|];
SameDegreeInRoom = 20;
Mergeability = 1;
